/*********************************************
 * OPL 12.10.0.0 Data
 * Author: elzbi
 * Creation Date: 20 sty 2021 at 09:29:11
 *********************************************/

RollWidth = 110;
Size = [20, 45, 50, 55, 75];
Duals = [0.0, 0.0, 0.0, 0.0, 0.0];